7895
32, 13, 52, 33, 44, 47, 14, 9, 11, 27, 26, 24, 15, 38, 46, 12, 39, 42, 21, 22, 1, 49, 35, 36, 40, 37, 34, 48, 5, 6, 4, 25, 28, 51, 43, 10, 8, 41, 45, 3, 18, 16, 29, 19, 17, 31, 23, 20, 50, 30, 2, 7
